CMPL model generation - running

CMPL version: 1.11.0
Authors: Thomas Schleiff, Mike Steglich
Distributed under the GPLv3 

create model instance ...
write model instance ...
CMPL model generation - finished

Solver - running


Welcome to IBM(R) ILOG(R) CPLEX(R) Interactive Optimizer 12.7.1.0
  with Simplex, Mixed Integer & Barrier Optimizers
5725-A06 5725-A29 5724-Y48 5724-Y49 5724-Y54 5724-Y55 5655-Y21
Copyright IBM Corp. 1988, 2017.  All Rights Reserved.

Type 'help' for a list of available commands.
Type 'help' followed by a command name for more
information on commands.

CPLEX> Specified objective sense: MINIMIZE
Selected objective  name:  line[1]
Selected RHS        name:  RHS
Selected bound      name:  BOUND
Problem '/tmp/cmpl.T24793.mps' read.
Read time = 0.05 sec. (8.20 ticks)
CPLEX> CPXPARAM_Read_APIEncoding                        "UTF-8"
Tried aggregator 3 times.
MIP Presolve eliminated 18901 rows and 30040 columns.
MIP Presolve modified 340 coefficients.
Aggregator did 910 substitutions.
Reduced MIP has 2544 rows, 3643 columns, and 10625 nonzeros.
Reduced MIP has 3475 binaries, 0 generals, 0 SOSs, and 0 indicators.
Presolve time = 0.05 sec. (41.24 ticks)
Found incumbent of value 2719.725088 after 0.11 sec. (74.75 ticks)
Probing fixed 36 vars, tightened 0 bounds.
Probing time = 0.01 sec. (4.93 ticks)
Tried aggregator 1 time.
MIP Presolve eliminated 0 rows and 36 columns.
MIP Presolve modified 273 coefficients.
Reduced MIP has 2544 rows, 3607 columns, and 10553 nonzeros.
Reduced MIP has 3607 binaries, 0 generals, 0 SOSs, and 0 indicators.
Presolve time = 0.01 sec. (10.20 ticks)
Probing time = 0.01 sec. (2.71 ticks)
Clique table members: 6511.
MIP emphasis: balance optimality and feasibility.
MIP search method: dynamic search.
Parallel mode: none, using 1 thread.
Root relaxation solution time = 0.01 sec. (9.51 ticks)

        Nodes                                         Cuts/
   Node  Left     Objective  IInf  Best Integer    Best Bound    ItCnt     Gap

*     0+    0                         2719.7251       -8.0760           100.30%
*     0     0      integral     0      765.7068      765.7068      510    0.00%
Elapsed time = 0.17 sec. (110.36 ticks, tree = 0.00 MB, solutions = 2)

Root node processing (before b&c):
  Real time             =    0.17 sec. (111.65 ticks)
Sequential b&c:
  Real time             =    0.00 sec. (0.00 ticks)
                          ------------
Total (root+branch&cut) =    0.17 sec. (111.65 ticks)

Solution pool: 2 solutions saved.

MIP - Integer optimal solution:  Objective =  7.6570675100e+02
Solution time =    0.17 sec.  Iterations = 510  Nodes = 0
Deterministic time = 111.75 ticks  (650.58 ticks/sec)

CPLEX> Incumbent solution written to file '/tmp/cmpl.T24793.gsol'.
CPLEX> 
CMPL: Time used for model generation: 1 seconds
CMPL: Time used for solving the model: 1 seconds


Solution written to ASCII file: results/output_generated_conf_0.9/2016-09-05-4/fair-nonlinear.sol

Solver - finished
